sat
(:added-eqs                   1255348
 :arith-eq-adapter            37970
 :arith-assume-eqs            728
 :arith-bound-propagations-lp 1660643
 :arith-branch                11
 :arith-conflicts             688
 :arith-cube-calls            5
 :arith-dio-calls             1
 :arith-diseq                 1703305
 :arith-fixed-eqs             150305
 :arith-gcd-calls             21
 :arith-gomory-cuts           12
 :arith-hnf-calls             5
 :arith-lower                 1732281
 :arith-make-feasible         697498
 :arith-max-columns           8491
 :arith-max-rows              6942
 :arith-offset-eqs            66663
 :arith-patches               21
 :arith-patches-success       4
 :arith-upper                 1919927
 :binary-propagations         2296723
 :conflicts                   882
 :decisions                   902935
 :del-clause                  84800
 :elim-unconstrained          77
 :final-checks                382
 :interface-eqs               364
 :max-memory                  164.64
 :memory                      51.54
 :minimized-lits              52
 :mk-bool-var                 128581
 :mk-clause                   98907
 :mk-clause-binary            67603
 :num-allocs                  77731837977.00
 :num-checks                  1
 :propagations                2752574
 :restarts                    8
 :rlimit-count                51921343
 :solve-eqs-elim-vars         195
 :solve-eqs-steps             22928
 :time                        69.49
 :total-time                  69.68)
